
Products =  { kluski capellini fettuccine };
Resources = { flour eggs };
NbPeriods = 3;

Consumption = [
                [ 0.5, 0.4, 0.3 ],
                [ 0.2, 0.4, 0.6 ]
              ];

Demand = [
           [ 10 100 50 ]
           [ 20 200 100]
           [ 50 100 100]
         ];
Inventory = [ 0 0 0];
InvCost = [ 0.1 0.2 0.1];  
InsideCost = [ 0.4, 0.6, 0.1 ];
OutsideCost  = [ 0.8, 0.9, 0.4 ];



